opti conp c6

library lib2.lib
dump temp.res
time 15 minutes
maxcyc 1500
lbfgs_order 5000
time 5 minutes
library lib2.lib
# 
title
ASE calculation                                                                 
end
cell
   3.899000   3.899000  20.399990  90.000000  90.000000  90.000000
fractional  1   
O     core 0.5000000 0.5000000 0.5000000 -2.0000000 1.00000 0.00000             
O     core 0.5000000 0.0000000 0.4050000 -2.0000000 1.00000 0.00000             
O     core 0.5000000 0.0000000 0.5950000 -2.0000000 1.00000 0.00000             
O     core 0.5000000 0.0000000 0.9050000 -2.0000000 1.00000 0.00000             
O     core 0.5000000 0.0000000 0.0950000 -2.0000000 1.00000 0.00000             
O     core 0.0000000 0.5000000 0.9050000 -2.0000000 1.00000 0.00000             
O     core 0.0000000 0.5000000 0.0950000 -2.0000000 1.00000 0.00000             
O     core 0.5000000 0.5000000 0.3100000 -2.0000000 1.00000 0.00000             
O     core 0.5000000 0.5000000 0.6900000 -2.0000000 1.00000 0.00000             
O     core 0.0000000 0.0000000 0.8100000 -2.0000000 1.00000 0.00000             
O     core 0.0000000 0.0000000 0.1900000 -2.0000000 1.00000 0.00000             
O     core 0.0000000 0.5000000 0.4050000 -2.0000000 1.00000 0.00000             
O     core 0.0000000 0.0000000 0.0000000 -2.0000000 1.00000 0.00000             
O     core 0.0000000 0.5000000 0.5950000 -2.0000000 1.00000 0.00000             
Sr    core 0.5000000 0.5000000 0.1850000 2.00000000 1.00000 0.00000             
Sr    core 0.5000000 0.5000000 0.8150000 2.00000000 1.00000 0.00000             
Sr    core 0.0000000 0.0000000 0.6850000 2.00000000 1.00000 0.00000             
Sr    core 0.0000000 0.0000000 0.3150000 2.00000000 1.00000 0.00000             
Sr    core 0.5000000 0.5000000 0.0000000 2.00000000 1.00000 0.00000             
Sr    core 0.0000000 0.0000000 0.5000000 2.00000000 1.00000 0.00000             
Ti    core 0.5000000 0.5000000 0.4050000 4.00000000 1.00000 0.00000             
Ti    core 0.5000000 0.5000000 0.5950000 4.00000000 1.00000 0.00000             
Ti    core 0.0000000 0.0000000 0.9050000 4.00000000 1.00000 0.00000             
Ti    core 0.0000000 0.0000000 0.0950000 4.00000000 1.00000 0.00000             
