 O Sr Ti 
 1.0000000000000000
     3.8990000000000000    0.0000000000000000    0.0000000000000000
     0.0000000000000000    3.8990000000000000    0.0000000000000000
     0.0000000000000000    0.0000000000000000   20.3999899999999990
  14   6   4
Cartesian
  1.9495000000000000  1.9495000000000000 10.1999949999999995
  1.9495000000000000  0.0000000000000000  8.2619959499999993
  1.9495000000000000  0.0000000000000000 12.1379940499999996
  1.9495000000000000  0.0000000000000000 18.4619909500000006
  1.9495000000000000  0.0000000000000000  1.9379990499999999
  0.0000000000000000  1.9495000000000000 18.4619909500000006
  0.0000000000000000  1.9495000000000000  1.9379990499999999
  1.9495000000000000  1.9495000000000000  6.3239969000000000
  1.9495000000000000  1.9495000000000000 14.0759930999999980
  0.0000000000000000  0.0000000000000000 16.5239918999999986
  0.0000000000000000  0.0000000000000000  3.8759980999999999
  0.0000000000000000  1.9495000000000000  8.2619959499999993
  0.0000000000000000  0.0000000000000000  0.0000000000000000
  0.0000000000000000  1.9495000000000000 12.1379940499999996
  1.9495000000000000  1.9495000000000000  3.7739981499999997
  1.9495000000000000  1.9495000000000000 16.6259918499999984
  0.0000000000000000  0.0000000000000000 13.9739931500000001
  0.0000000000000000  0.0000000000000000  6.4259968499999998
  1.9495000000000000  1.9495000000000000  0.0000000000000000
  0.0000000000000000  0.0000000000000000 10.1999949999999995
  1.9495000000000000  1.9495000000000000  8.2619959499999993
  1.9495000000000000  1.9495000000000000 12.1379940499999996
  0.0000000000000000  0.0000000000000000 18.4619909500000006
  0.0000000000000000  0.0000000000000000  1.9379990499999999
