 O Sr Ti 
 1.0000000000000000
     3.8999999999999999    0.0000000000000000    0.0000000000000000
     0.0000000000000000    3.8999999999999999    0.0000000000000000
     0.0000000000000000    0.0000000000000000   28.1000000000000014
  20   8   6
Cartesian
  1.9500000000000000  0.0000000000000000  3.8216000000000006
  0.0000000000000000  0.0000000000000000 22.3676000000000030
  0.0000000000000000  0.0000000000000000  5.7324000000000002
  0.0000000000000000  1.9500000000000000 10.2284000000000006
  0.0000000000000000  1.9500000000000000 17.8716000000000008
  1.9500000000000000  0.0000000000000000 10.2284000000000006
  1.9500000000000000  0.0000000000000000 17.8716000000000008
  1.9500000000000000  0.0000000000000000 24.2784000000000013
  0.0000000000000000  1.9500000000000000 24.2784000000000013
  0.0000000000000000  1.9500000000000000  3.8216000000000006
  1.9500000000000000  1.9500000000000000 12.1392000000000007
  1.9500000000000000  1.9500000000000000 19.7823999999999991
  1.9500000000000000  1.9500000000000000 15.9608000000000025
  0.0000000000000000  0.0000000000000000  1.9108000000000003
  0.0000000000000000  1.9500000000000000 14.0500000000000007
  1.9500000000000000  0.0000000000000000 14.0500000000000007
  1.9500000000000000  0.0000000000000000  0.0000000000000000
  0.0000000000000000  1.9500000000000000  0.0000000000000000
  0.0000000000000000  0.0000000000000000 26.1891999999999996
  1.9500000000000000  1.9500000000000000  8.3176000000000023
  0.0000000000000000  0.0000000000000000 12.1111000000000004
  0.0000000000000000  0.0000000000000000 15.9888999999999992
  1.9500000000000000  1.9500000000000000 26.1611000000000011
  1.9500000000000000  1.9500000000000000  1.9389000000000003
  0.0000000000000000  0.0000000000000000  8.2895000000000003
  0.0000000000000000  0.0000000000000000 19.8105000000000047
  1.9500000000000000  1.9500000000000000  5.7605000000000004
  1.9500000000000000  1.9500000000000000 22.3394999999999975
  1.9500000000000000  1.9500000000000000 10.2846000000000011
  1.9500000000000000  1.9500000000000000 17.8154000000000003
  0.0000000000000000  0.0000000000000000 24.3346000000000018
  0.0000000000000000  0.0000000000000000  3.7654000000000005
  1.9500000000000000  1.9500000000000000 14.0500000000000007
  0.0000000000000000  0.0000000000000000  0.0000000000000000
