opti conp c6

library lib2.lib
dump temp.res
time 15 minutes
maxcyc 1500
lbfgs_order 5000
time 5 minutes
library lib2.lib
# 
title
ASE calculation                                                                 
end
cell
  10.550468  12.522803   3.524064  90.000000  90.000000  90.018290
fractional  1   
O     core 0.7900000 0.8070000 0.7500000 -2.0000000 1.00000 0.00000             
O     core 0.5768180 0.5489777 0.7500000 -2.0000000 1.00000 0.00000             
O     core 0.4205996 0.4021938 0.2500000 -2.0000000 1.00000 0.00000             
O     core 0.0162757 0.6897633 0.2500000 -2.0000000 1.00000 0.00000             
O     core 0.9824204 0.2622772 0.7500000 -2.0000000 1.00000 0.00000             
O     core 0.4829344 0.1890997 0.7500000 -2.0000000 1.00000 0.00000             
O     core 0.5148925 0.7620605 0.2500000 -2.0000000 1.00000 0.00000             
O     core 0.6193021 0.9944383 0.2500000 -2.0000000 1.00000 0.00000             
O     core 0.3784418 0.9565849 0.7500000 -2.0000000 1.00000 0.00000             
O     core 0.8787096 0.4950084 0.7500000 -2.0000000 1.00000 0.00000             
O     core 0.1192330 0.4567258 0.2500000 -2.0000000 1.00000 0.00000             
O     core 0.7071374 0.3092257 0.2500000 -2.0000000 1.00000 0.00000             
O     core 0.2906599 0.6423253 0.7500000 -2.0000000 1.00000 0.00000             
O     core 0.9202084 0.0490297 0.2500000 -2.0000000 1.00000 0.00000             
O     core 0.2070074 0.1422713 0.2500000 -2.0000000 1.00000 0.00000             
O     core 0.0761925 0.9025572 0.7500000 -2.0000000 1.00000 0.00000             
Sr    core 0.2535718 0.8291986 0.2500000 2.00000000 1.00000 0.00000             
Sr    core 0.7432719 0.1224194 0.7500000 2.00000000 1.00000 0.00000             
Sr    core 0.2434563 0.3295700 0.7500000 2.00000000 1.00000 0.00000             
Sr    core 0.7538030 0.6223575 0.2500000 2.00000000 1.00000 0.00000             
Y     core 0.9286403 0.8596588 0.2500000 3.00000000 1.00000 0.00000             
Y     core 0.0681699 0.0915788 0.7500000 3.00000000 1.00000 0.00000             
Y     core 0.5684490 0.3599359 0.7500000 3.00000000 1.00000 0.00000             
Y     core 0.4291218 0.5914870 0.2500000 3.00000000 1.00000 0.00000             
Y     core 0.9173400 0.3689360 0.2499999 3.00000000 1.00000 0.00000             
Y     core 0.0804310 0.5829818 0.7500000 3.00000000 1.00000 0.00000             
Y     core 0.5800484 0.8683369 0.7500000 3.00000000 1.00000 0.00000             
Y     core 0.4172773 0.0826089 0.2500000 3.00000000 1.00000 0.00000             
