 O Sr  Y 
 1.0000000000000000
    10.0800000000000001    0.0000000000000000    0.0000000000000000
     0.0000000000000000   11.9100000000000001    0.0000000000000000
     0.0000000000000000    0.0000000000000000    3.3999999999999999
  16   4   8
Cartesian
  7.9632000000000005  9.6113699999999991  2.5499999999999998
  5.9068800000000010  7.0269000000000013  2.5499999999999998
  4.1731199999999999  4.8830999999999998  0.8500000000000000
  0.2016000000000002  8.6228400000000001  0.8500000000000000
  9.8783999999999992  3.2871600000000005  2.5499999999999998
  4.8384000000000000  2.6678399999999995  2.5499999999999998
  5.2416000000000000  9.2421600000000002  0.8500000000000000
  6.4411199999999997  0.3930299999999997  0.8500000000000000
  3.6388799999999999 11.5169700000000006  2.5499999999999998
  8.6788799999999995  6.3480299999999987  2.5499999999999998
  1.4011200000000001  5.5619700000000005  0.8500000000000000
  7.1567999999999996  3.6563699999999999  0.8500000000000000
  2.9232000000000005  8.2536300000000011  2.5499999999999998
  9.2131200000000000  1.0719000000000003  0.8500000000000000
  2.1168000000000000  2.2986300000000002  0.8500000000000000
  0.8668800000000002 10.8380999999999990  2.5499999999999998
  2.5300799999999990 10.0877699999999990  0.8500000000000000
  7.5499200000000002  1.8222300000000002  2.5499999999999998
  2.5099200000000002  4.1327699999999998  2.5499999999999998
  7.5700799999999999  7.7772300000000003  0.8500000000000000
  9.3340800000000002 10.6118100000000002  0.8500000000000000
  0.7459200000000001  1.2981900000000000  2.5499999999999998
  5.7859200000000008  4.6568100000000001  2.5499999999999998
  4.2940800000000001  7.2531900000000000  0.8500000000000000
  9.3139199999999995  4.6568100000000001  0.8500000000000000
  0.7660800000000001  7.2531900000000000  2.5499999999999998
  5.8060800000000006 10.6118100000000002  2.5499999999999998
  4.2739199999999995  1.2981900000000000  0.8500000000000000
