opti conp c6

library lib2.lib
dump temp.res
time 15 minutes
maxcyc 1500
lbfgs_order 5000
time 5 minutes
library lib2.lib
# 
title
ASE calculation                                                                 
end
cell
   4.511603   4.511603   3.066616  90.000000  90.000000  89.999544
fractional  1   
O     core 0.3057000 0.3057000 0.0000000 -2.0000000 1.00000 0.00000             
O     core 0.6938655 0.6938655 1.0000000 -2.0000000 1.00000 0.00000             
O     core 0.1938304 0.8056067 0.5000000 -2.0000000 1.00000 0.00000             
O     core 0.8056067 0.1938304 0.5000000 -2.0000000 1.00000 0.00000             
Ti    core 0.9997119 0.9997119 1.0000000 4.00000000 1.00000 0.00000             
Ti    core 0.4997273 0.4997273 0.5000000 4.00000000 1.00000 0.00000             
