 O Ti 
 1.0000000000000000
     4.5941000000000001    0.0000000000000000    0.0000000000000000
     0.0000000000000000    4.5941000000000001    0.0000000000000000
     0.0000000000000000    0.0000000000000000    2.9588999999999999
   4   2
Cartesian
  1.4044163700000001  1.4044163700000001  0.0000000000000000
  3.1896836299999998  3.1896836299999998  0.0000000000000000
  0.8926336299999998  3.7014663700000003  1.4794499999999999
  3.7014663700000003  0.8926336299999998  1.4794499999999999
  0.0000000000000000  0.0000000000000000  0.0000000000000000
  2.2970500000000000  2.2970500000000000  1.4794499999999999
