 O Sr Ti 
 1.0000000000000000
     3.9049999999999998    0.0000000000000000    0.0000000000000000
     0.0000000000000000    3.9049999999999998    0.0000000000000000
     0.0000000000000000    0.0000000000000000    3.9049999999999998
   3   1   1
Cartesian
  0.0000000000000000  1.9524999999999999  1.9524999999999999
  1.9524999999999999  0.0000000000000000  1.9524999999999999
  1.9524999999999999  1.9524999999999999  0.0000000000000000
  0.0000000000000000  0.0000000000000000  0.0000000000000000
  1.9524999999999999  1.9524999999999999  1.9524999999999999
