opti conp c6

library lib2.lib
dump temp.res
time 15 minutes
maxcyc 1500
lbfgs_order 5000
time 5 minutes
library lib2.lib
# 
title
ASE calculation                                                                 
end
cell
  10.782317   3.754961  11.627832  90.000000  89.996156  90.000000
fractional  1   
O     core 0.9950000 0.2500000 0.3980000 -2.0000000 1.00000 0.00000             
O     core 0.6931940 0.7500000 0.6172475 -2.0000000 1.00000 0.00000             
O     core 0.2863688 0.2499999 0.3918212 -2.0000000 1.00000 0.00000             
O     core 0.0021406 0.2500000 0.8504010 -2.0000000 1.00000 0.00000             
O     core 0.9780207 0.7500000 0.1581643 -2.0000000 1.00000 0.00000             
O     core 0.4777224 0.7500000 0.3506756 -2.0000000 1.00000 0.00000             
O     core 0.5020105 0.2500000 0.6584272 -2.0000000 1.00000 0.00000             
O     core 0.7429661 0.2500000 0.7628930 -2.0000000 1.00000 0.00000             
O     core 0.2369201 0.7500000 0.2461393 -2.0000000 1.00000 0.00000             
O     core 0.7368298 0.7500000 0.2626943 -2.0000000 1.00000 0.00000             
O     core 0.2429022 0.2500000 0.7460098 -2.0000000 1.00000 0.00000             
O     core 0.7238445 0.2500000 0.4702953 -2.0000000 1.00000 0.00000             
O     core 0.2553464 0.7500000 0.5386427 -2.0000000 1.00000 0.00000             
O     core 0.7556256 0.7500000 0.9702592 -2.0000000 1.00000 0.00000             
O     core 0.2244417 0.2500000 0.0386296 -2.0000000 1.00000 0.00000             
O     core 0.7871054 0.2500000 0.1171097 -2.0000000 1.00000 0.00000             
O     core 0.9836115 0.7500000 0.6107079 -2.0000000 1.00000 0.00000             
O     core 0.4838182 0.7500000 0.8981050 -2.0000000 1.00000 0.00000             
O     core 0.4962466 0.2500000 0.1108684 -2.0000000 1.00000 0.00000             
O     core 0.1931775 0.7500000 0.8917389 -2.0000000 1.00000 0.00000             
Ti    core 0.6637355 0.2500000 0.6204076 4.00000000 1.00000 0.00000             
Ti    core 0.3160009 0.7500000 0.3886685 4.00000000 1.00000 0.00000             
Ti    core 0.8162605 0.7500000 0.1202513 4.00000000 1.00000 0.00000             
Ti    core 0.1638200 0.2500000 0.8886350 4.00000000 1.00000 0.00000             
Y     core 0.6198470 0.2500000 0.9366637 3.00000000 1.00000 0.00000             
Y     core 0.3601660 0.7500000 0.0723235 3.00000000 1.00000 0.00000             
Y     core 0.8596303 0.7500000 0.4366635 3.00000000 1.00000 0.00000             
Y     core 0.1194692 0.2500000 0.5722202 3.00000000 1.00000 0.00000             
Y     core 0.6013741 0.2500000 0.2938782 3.00000000 1.00000 0.00000             
Y     core 0.3783913 0.7500000 0.7150617 3.00000000 1.00000 0.00000             
Y     core 0.8785291 0.7500000 0.7938701 3.00000000 1.00000 0.00000             
Y     core 0.1012920 0.2500000 0.2150927 3.00000000 1.00000 0.00000             
