 O Ti  Y 
 1.0000000000000000
    10.3499999999999996    0.0000000000000000    0.0000000000000000
     0.0000000000000000    3.7000000000000002    0.0000000000000000
     0.0000000000000000    0.0000000000000000   11.2500000000000000
  20   4   8
Cartesian
 10.2982499999999995  0.9250000000000000  4.4775000000000000
  7.5658499999999993  2.7750000000000004  6.9412500000000001
  2.7841499999999999  0.9250000000000000  4.3087499999999999
  0.0828000000000001  0.9250000000000000  9.4499999999999993
 10.2671999999999990  2.7750000000000004  1.8000000000000016
  5.0922000000000001  2.7750000000000004  3.8249999999999997
  5.2577999999999996  0.9250000000000000  7.4250000000000007
  7.8556499999999998  0.9250000000000000  8.6174999999999997
  2.4943499999999998  2.7750000000000004  2.6324999999999998
  7.6693499999999997  2.7750000000000004  2.9925000000000002
  2.6806500000000000  0.9250000000000000  8.2575000000000003
  7.4830499999999995  0.9250000000000000  5.1187500000000004
  2.8669500000000001  2.7750000000000004  6.1312500000000005
  8.0419499999999999  2.7750000000000004 10.7437500000000004
  2.3080500000000002  0.9250000000000000  0.5062500000000000
  7.9591500000000002  0.9250000000000000  1.3162499999999999
  0.0517500000000000  2.7750000000000004  6.7725000000000000
  5.2267500000000000  2.7750000000000004 10.1025000000000009
  5.1232499999999996  0.9250000000000000  1.1475000000000000
  2.3908499999999999  2.7750000000000004  9.9337499999999999
  6.9810749999999997  0.9250000000000000  6.9682499999999994
  3.3689249999999999  2.7750000000000004  4.2817500000000006
  8.5439249999999998  2.7750000000000004  1.3432499999999994
  1.8060749999999999  0.9250000000000000  9.9067500000000006
  6.5888100000000005  0.9250000000000000 10.5997500000000002
  3.7611900000000000  2.7750000000000004  0.6502499999999983
  8.9361899999999999  2.7750000000000004  4.9747500000000002
  1.4138100000000000  0.9250000000000000  6.2752499999999998
  6.3714599999999999  0.9250000000000000  3.1151250000000004
  3.9785400000000002  2.7750000000000004  8.1348749999999992
  9.1535399999999996  2.7750000000000004  8.7401250000000008
  1.1964599999999999  0.9250000000000000  2.5098750000000001
