 O Sr Ti                                
   1.00000000000000     
     5.5747277085509461    0.0000000000000000    0.0000000000000000
     0.0000000000000000    5.5747277085509461    0.0000000000000000
    -0.0000000000000000   -0.0000000000000000    7.8924017349488436
   O    Sr   Ti
    12     4     4
Direct
  0.0000000000000000 -0.0000000000000000  0.7500000000000000
  0.2411341373386988  0.2588658626613012  0.5000000000000000
  0.7588658626613012  0.7411341373386988  0.5000000000000000
  0.7411341373386988  0.7588658626613012 -0.0000000000000000
  0.2588658626613012  0.2411341373386988  0.0000000000000000
  0.7588658626613012  0.2588658626613012 -0.0000000000000000
  0.2411341373386988  0.7411341373386988  0.0000000000000000
  0.5000000000000000  0.5000000000000000  0.2500000000000000
  0.5000000000000000  0.5000000000000000  0.7500000000000000
  0.2588658626613012  0.7588658626613012  0.5000000000000000
  0.0000000000000000 -0.0000000000000000  0.2500000000000000
  0.7411341373386988  0.2411341373386988  0.5000000000000000
  0.5000000000000000 -0.0000000000000000  0.7500000000000000
  0.5000000000000000 -0.0000000000000000  0.2500000000000000
  0.0000000000000000  0.5000000000000000  0.7500000000000000
  0.0000000000000000  0.5000000000000000  0.2500000000000000
  0.5000000000000000  0.5000000000000000  0.0000000000000000
  0.5000000000000000  0.5000000000000000  0.5000000000000000
  0.0000000000000000 -0.0000000000000000  0.5000000000000000
  0.0000000000000000 -0.0000000000000000  0.0000000000000000
 
  0.00000000E+00  0.00000000E+00  0.00000000E+00
  0.00000000E+00  0.00000000E+00  0.00000000E+00
  0.00000000E+00  0.00000000E+00  0.00000000E+00
  0.00000000E+00  0.00000000E+00  0.00000000E+00
  0.00000000E+00  0.00000000E+00  0.00000000E+00
  0.00000000E+00  0.00000000E+00  0.00000000E+00
  0.00000000E+00  0.00000000E+00  0.00000000E+00
  0.00000000E+00  0.00000000E+00  0.00000000E+00
  0.00000000E+00  0.00000000E+00  0.00000000E+00
  0.00000000E+00  0.00000000E+00  0.00000000E+00
  0.00000000E+00  0.00000000E+00  0.00000000E+00
  0.00000000E+00  0.00000000E+00  0.00000000E+00
  0.00000000E+00  0.00000000E+00  0.00000000E+00
  0.00000000E+00  0.00000000E+00  0.00000000E+00
  0.00000000E+00  0.00000000E+00  0.00000000E+00
  0.00000000E+00  0.00000000E+00  0.00000000E+00
  0.00000000E+00  0.00000000E+00  0.00000000E+00
  0.00000000E+00  0.00000000E+00  0.00000000E+00
  0.00000000E+00  0.00000000E+00  0.00000000E+00
  0.00000000E+00  0.00000000E+00  0.00000000E+00
