opti conp c6

library lib2.lib
dump temp.res
time 15 minutes
maxcyc 1500
lbfgs_order 5000
time 5 minutes
library lib2.lib
# 
title
ASE calculation                                                                 
end
cell
   9.186540   5.396340   5.252017  89.985750  90.025116  90.005974
fractional  1   
O     core 0.5094999 0.1491000 0.3165000 -2.0000000 1.00000 0.00000             
O     core 0.2238433 0.3853202 0.0124520 -2.0000000 1.00000 0.00000             
O     core 0.7612563 0.6129714 0.9715447 -2.0000000 1.00000 0.00000             
O     core 0.7242915 0.1132786 0.9704602 -2.0000000 1.00000 0.00000             
O     core 0.2612076 0.8851434 0.0122204 -2.0000000 1.00000 0.00000             
O     core 0.7612993 0.8852973 0.4715652 -2.0000000 1.00000 0.00000             
O     core 0.2240897 0.1131324 0.5124484 -2.0000000 1.00000 0.00000             
O     core 0.4756292 0.6496959 0.1611746 -2.0000000 1.00000 0.00000             
O     core 0.5094290 0.3481540 0.8194524 -2.0000000 1.00000 0.00000             
O     core 0.0093018 0.3473460 0.6622566 -2.0000000 1.00000 0.00000             
O     core 0.9757578 0.6506913 0.3226832 -2.0000000 1.00000 0.00000             
O     core 0.2613055 0.6129609 0.5123540 -2.0000000 1.00000 0.00000             
O     core 0.4757526 0.8486595 0.6609760 -2.0000000 1.00000 0.00000             
O     core 0.9759112 0.8473293 0.8226191 -2.0000000 1.00000 0.00000             
O     core 0.0093730 0.1507061 0.1624341 -2.0000000 1.00000 0.00000             
O     core 0.7235844 0.3848850 0.4710717 -2.0000000 1.00000 0.00000             
Ti    core 0.3632407 0.5981750 0.8398450 4.00000000 1.00000 0.00000             
Ti    core 0.6218956 0.3998739 0.1422846 4.00000000 1.00000 0.00000             
Ti    core 0.1218762 0.4002728 0.3404882 4.00000000 1.00000 0.00000             
Ti    core 0.8632818 0.5978452 0.6438996 4.00000000 1.00000 0.00000             
Ti    core 0.6219729 0.0980865 0.6425837 4.00000000 1.00000 0.00000             
Ti    core 0.3632877 0.9000705 0.3394151 4.00000000 1.00000 0.00000             
Ti    core 0.8633432 0.9003110 0.1438006 4.00000000 1.00000 0.00000             
Ti    core 0.1218634 0.0979743 0.8404858 4.00000000 1.00000 0.00000             
