 O Ti 
 1.0000000000000000
     9.1739999999999995    0.0000000000000000    0.0000000000000000
     0.0000000000000000    5.4489999999999998    0.0000000000000000
     0.0000000000000000    0.0000000000000000    5.1379999999999999
  16   8
Cartesian
  4.6741529999999996  0.8124459000000001  1.6261770000000000
  2.1228635999999996  2.1196609999999998  0.1880507999999998
  7.0511363999999990  3.3293390000000000  4.9499491999999998
  6.7098636000000003  0.6048390000000000  4.9499491999999998
  2.4641364000000001  4.8441609999999997  0.1880507999999998
  7.0511363999999990  4.8441609999999997  2.3809492000000003
  2.1228635999999996  0.6048390000000000  2.7570507999999996
  4.4998469999999999  3.5369459000000001  0.9428230000000000
  4.6741529999999996  1.9120541000000000  4.1951770000000002
  0.0871530000000000  1.9120541000000000  3.5118229999999997
  9.0868470000000006  3.5369459000000001  1.6261770000000000
  2.4641364000000001  3.3293390000000000  2.7570507999999996
  4.4998469999999999  4.6365540999999997  3.5118229999999997
  9.0868470000000006  4.6365540999999997  4.1951770000000002
  0.0871530000000000  0.8124459000000001  0.9428230000000000
  6.7098636000000003  2.1196609999999998  2.3809492000000003
  3.4044713999999998  3.2541427999999994  4.4330664000000004
  5.7695286000000001  2.1948572000000000  0.7049335999999999
  1.1825285999999997  2.1948572000000000  1.8640664000000000
  7.9914713999999991  3.2541427999999994  3.2739335999999999
  5.7695286000000001  0.5296428000000000  3.2739335999999999
  3.4044713999999998  4.9193572000000003  1.8640664000000000
  7.9914713999999991  4.9193572000000003  0.7049335999999999
  1.1825285999999997  0.5296428000000000  4.4330664000000004
