opti conp c6

library lib2.lib
dump temp.res
time 15 minutes
maxcyc 1500
lbfgs_order 5000
time 5 minutes
library lib2.lib
# 
title
ASE calculation                                                                 
end
cell
  11.083258  11.081636  11.082714  90.000811  90.006295  89.999896
fractional  1   
O     core 0.1110000 0.6540000 0.3780000 -2.0000000 1.00000 0.00000             
O     core 0.1110052 0.3485369 0.1159134 -2.0000000 1.00000 0.00000             
O     core 0.8897941 0.6530877 0.8792851 -2.0000000 1.00000 0.00000             
O     core 0.6526670 0.3824958 0.1082724 -2.0000000 1.00000 0.00000             
O     core 0.3481202 0.6190770 0.8869416 -2.0000000 1.00000 0.00000             
O     core 0.3481323 0.8825557 0.3869454 -2.0000000 1.00000 0.00000             
O     core 0.6526083 0.1191217 0.6083100 -2.0000000 1.00000 0.00000             
O     core 0.1526575 0.1191826 0.8869564 -2.0000000 1.00000 0.00000             
O     core 0.6109928 0.3485062 0.3793793 -2.0000000 1.00000 0.00000             
O     core 0.8480805 0.8825167 0.1082862 -2.0000000 1.00000 0.00000             
O     core 0.1525175 0.3828038 0.3869280 -2.0000000 1.00000 0.00000             
O     core 0.3820445 0.1114419 0.6499543 -2.0000000 1.00000 0.00000             
O     core 0.6186334 0.8902415 0.3453995 -2.0000000 1.00000 0.00000             
O     core 0.8820874 0.3903498 0.3453633 -2.0000000 1.00000 0.00000             
O     core 0.1186102 0.6114005 0.6493606 -2.0000000 1.00000 0.00000             
O     core 0.1187472 0.8904549 0.1497003 -2.0000000 1.00000 0.00000             
O     core 0.8820543 0.1113589 0.8454112 -2.0000000 1.00000 0.00000             
O     core 0.8481891 0.6191515 0.6081349 -2.0000000 1.00000 0.00000             
O     core 0.6187052 0.6113934 0.8452876 -2.0000000 1.00000 0.00000             
O     core 0.3896786 0.6531322 0.6158529 -2.0000000 1.00000 0.00000             
O     core 0.8895855 0.8486448 0.3792843 -2.0000000 1.00000 0.00000             
O     core 0.8481300 0.3824945 0.8870463 -2.0000000 1.00000 0.00000             
O     core 0.1527001 0.6191770 0.1078061 -2.0000000 1.00000 0.00000             
O     core 0.6526233 0.6191189 0.3870769 -2.0000000 1.00000 0.00000             
O     core 0.3479941 0.3826218 0.6080813 -2.0000000 1.00000 0.00000             
O     core 0.3480831 0.1191977 0.1082705 -2.0000000 1.00000 0.00000             
O     core 0.6526971 0.8824737 0.8870367 -2.0000000 1.00000 0.00000             
O     core 0.8819528 0.6114555 0.1498168 -2.0000000 1.00000 0.00000             
O     core 0.1109712 0.1530987 0.6159364 -2.0000000 1.00000 0.00000             
O     core 0.1187066 0.3902690 0.8453107 -2.0000000 1.00000 0.00000             
O     core 0.6187101 0.1114531 0.1499837 -2.0000000 1.00000 0.00000             
O     core 0.6186595 0.3901965 0.6499529 -2.0000000 1.00000 0.00000             
O     core 0.3821077 0.6115181 0.3451950 -2.0000000 1.00000 0.00000             
O     core 0.1186773 0.1115021 0.3454320 -2.0000000 1.00000 0.00000             
O     core 0.8820947 0.8901908 0.6498362 -2.0000000 1.00000 0.00000             
O     core 0.6109784 0.1530659 0.8793949 -2.0000000 1.00000 0.00000             
O     core 0.3899413 0.8487087 0.1157745 -2.0000000 1.00000 0.00000             
O     core 0.3820398 0.8901558 0.8452704 -2.0000000 1.00000 0.00000             
O     core 0.3820692 0.3902078 0.1499529 -2.0000000 1.00000 0.00000             
O     core 0.1526343 0.8824463 0.6081891 -2.0000000 1.00000 0.00000             
O     core 0.8897433 0.3485251 0.6159974 -2.0000000 1.00000 0.00000             
O     core 0.3897968 0.3485032 0.8792745 -2.0000000 1.00000 0.00000             
O     core 0.6109169 0.6530601 0.1159311 -2.0000000 1.00000 0.00000             
O     core 0.8897858 0.1531307 0.1160055 -2.0000000 1.00000 0.00000             
O     core 0.1109801 0.8485160 0.8792566 -2.0000000 1.00000 0.00000             
O     core 0.6109732 0.8485195 0.6159852 -2.0000000 1.00000 0.00000             
O     core 0.3897144 0.1531454 0.3793834 -2.0000000 1.00000 0.00000             
O     core 0.8481150 0.1192023 0.3871134 -2.0000000 1.00000 0.00000             
Y     core 0.9671094 0.5008642 0.7475895 3.00000000 1.00000 0.00000             
Y     core 0.0336433 0.5009554 0.2473500 3.00000000 1.00000 0.00000             
Y     core 0.4670820 0.0009127 0.2476659 3.00000000 1.00000 0.00000             
Y     core 0.5336751 0.0007944 0.7476714 3.00000000 1.00000 0.00000             
Y     core 0.0336627 0.0007929 0.7475999 3.00000000 1.00000 0.00000             
Y     core 0.9671015 0.0008226 0.2476781 3.00000000 1.00000 0.00000             
Y     core 0.2503453 0.2508822 0.7475560 3.00000000 1.00000 0.00000             
Y     core 0.7503670 0.2507921 0.7476989 3.00000000 1.00000 0.00000             
Y     core 0.4670226 0.5008310 0.7475490 3.00000000 1.00000 0.00000             
Y     core 0.7502980 0.7508302 0.2476275 3.00000000 1.00000 0.00000             
Y     core 0.7504186 0.2508435 0.2476905 3.00000000 1.00000 0.00000             
Y     core 0.2502784 0.7507331 0.7475938 3.00000000 1.00000 0.00000             
Y     core 0.7504464 0.7508123 0.7475886 3.00000000 1.00000 0.00000             
Y     core 0.2506039 0.7510107 0.2471422 3.00000000 1.00000 0.00000             
Y     core 0.5337234 0.5007905 0.2476551 3.00000000 1.00000 0.00000             
Y     core 0.2504376 0.4674397 0.9975863 3.00000000 1.00000 0.00000             
Y     core 0.7503702 0.0341182 0.9977080 3.00000000 1.00000 0.00000             
Y     core 0.7503496 0.5341116 0.9975955 3.00000000 1.00000 0.00000             
Y     core 0.2503672 0.0340791 0.4976520 3.00000000 1.00000 0.00000             
Y     core 0.7503408 0.9675499 0.4976633 3.00000000 1.00000 0.00000             
Y     core 0.7503617 0.4674942 0.4976821 3.00000000 1.00000 0.00000             
Y     core 0.2503496 0.5344036 0.4972467 3.00000000 1.00000 0.00000             
Y     core 0.0003870 0.2507947 0.9643275 3.00000000 1.00000 0.00000             
Y     core 0.0003430 0.7509001 0.0309377 3.00000000 1.00000 0.00000             
Y     core 0.0004029 0.7508773 0.5305513 3.00000000 1.00000 0.00000             
Y     core 0.0003901 0.2509172 0.4643457 3.00000000 1.00000 0.00000             
Y     core 0.5003816 0.2508182 0.0309780 3.00000000 1.00000 0.00000             
Y     core 0.5004138 0.7507922 0.9642318 3.00000000 1.00000 0.00000             
Y     core 0.5003652 0.7508629 0.4643191 3.00000000 1.00000 0.00000             
Y     core 0.5003405 0.2508299 0.5309937 3.00000000 1.00000 0.00000             
Y     core 0.2504306 0.9676098 0.9974974 3.00000000 1.00000 0.00000             
Y     core 0.2503282 0.2508617 0.2476859 3.00000000 1.00000 0.00000             
