 O  Y 
 1.0000000000000000
    10.6039999999999992    0.0000000000000000    0.0000000000000000
     0.0000000000000000   10.6039999999999992    0.0000000000000000
     0.0000000000000000    0.0000000000000000   10.6039999999999992
  48  32
Cartesian
  1.1770439999999998  6.9350160000000001  4.0083120000000001
  1.1770439999999998  3.6689839999999996  1.2936879999999999
  9.4269559999999988  6.9350160000000001  9.3103119999999997
  6.9350160000000001  4.0083120000000001  1.1770439999999998
  3.6689839999999996  6.5956879999999991  9.4269559999999988
  3.6689839999999996  9.3103119999999997  4.1249560000000001
  6.9350160000000001  1.2936879999999999  6.4790439999999991
  1.6330159999999998  1.2936879999999999  9.4269559999999988
  6.4790439999999991  3.6689839999999996  4.0083120000000001
  8.9709839999999996  9.3103119999999997  1.1770439999999998
  1.6330159999999998  4.0083120000000001  4.1249560000000001
  4.0083120000000001  1.1770439999999998  6.9350160000000001
  6.5956879999999991  9.4269559999999988  3.6689839999999996
  9.3103119999999997  4.1249560000000001  3.6689839999999996
  1.2936879999999999  6.4790439999999991  6.9350160000000001
  1.2936879999999999  9.4269559999999988  1.6330159999999998
  9.3103119999999997  1.1770439999999998  8.9709839999999996
  8.9709839999999996  6.5956879999999991  6.4790439999999991
  6.5956879999999991  6.4790439999999991  8.9709839999999996
  4.1249560000000001  6.9350160000000001  6.5956879999999991
  9.4269559999999988  8.9709839999999996  4.0083120000000001
  8.9709839999999996  4.0083120000000001  9.4269559999999988
  1.6330159999999998  6.5956879999999991  1.1770439999999998
  6.9350160000000001  6.5956879999999991  4.1249560000000001
  3.6689839999999996  4.0083120000000001  6.4790439999999991
  3.6689839999999996  1.2936879999999999  1.1770439999999998
  6.9350160000000001  9.3103119999999997  9.4269559999999988
  9.3103119999999997  6.4790439999999991  1.6330159999999998
  1.1770439999999998  1.6330159999999998  6.5956879999999991
  1.2936879999999999  4.1249560000000001  8.9709839999999996
  6.5956879999999991  1.1770439999999998  1.6330159999999998
  6.5956879999999991  4.1249560000000001  6.9350160000000001
  4.0083120000000001  6.4790439999999991  3.6689839999999996
  1.2936879999999999  1.1770439999999998  3.6689839999999996
  9.3103119999999997  9.4269559999999988  6.9350160000000001
  6.4790439999999991  1.6330159999999998  9.3103119999999997
  4.1249560000000001  8.9709839999999996  1.2936879999999999
  4.0083120000000001  9.4269559999999988  8.9709839999999996
  4.0083120000000001  4.1249560000000001  1.6330159999999998
  1.6330159999999998  9.3103119999999997  6.4790439999999991
  9.4269559999999988  3.6689839999999996  6.5956879999999991
  4.1249560000000001  3.6689839999999996  9.3103119999999997
  6.4790439999999991  6.9350160000000001  1.2936879999999999
  9.4269559999999988  1.6330159999999998  1.2936879999999999
  1.1770439999999998  8.9709839999999996  9.3103119999999997
  6.4790439999999991  8.9709839999999996  6.5956879999999991
  4.1249560000000001  1.6330159999999998  4.0083120000000001
  8.9709839999999996  1.2936879999999999  4.1249560000000001
 10.2561887999999986  5.3019999999999996  7.9529999999999994
  0.3478112000000000  5.3019999999999996  2.6509999999999998
  4.9541887999999998  0.0000000000000000  2.6509999999999998
  5.6498112000000003  0.0000000000000000  7.9529999999999994
  0.3478112000000000  0.0000000000000000  7.9529999999999994
 10.2561887999999986  0.0000000000000000  2.6509999999999998
  2.6509999999999998  2.6509999999999998  7.9529999999999994
  7.9529999999999994  2.6509999999999998  7.9529999999999994
  4.9541887999999998  5.3019999999999996  7.9529999999999994
  7.9529999999999994  7.9529999999999994  2.6509999999999998
  7.9529999999999994  2.6509999999999998  2.6509999999999998
  2.6509999999999998  7.9529999999999994  7.9529999999999994
  7.9529999999999994  7.9529999999999994  7.9529999999999994
  2.6509999999999998  7.9529999999999994  2.6509999999999998
  5.6498112000000003  5.3019999999999996  2.6509999999999998
  2.6509999999999998  4.9541887999999998  0.0000000000000000
  7.9529999999999994  0.3478112000000000  0.0000000000000000
  7.9529999999999994  5.6498112000000003  0.0000000000000000
  2.6509999999999998  0.3478112000000000  5.3019999999999996
  7.9529999999999994 10.2561887999999986  5.3019999999999996
  7.9529999999999994  4.9541887999999998  5.3019999999999996
  2.6509999999999998  5.6498112000000003  5.3019999999999996
  0.0000000000000000  2.6509999999999998 10.2561887999999986
  0.0000000000000000  7.9529999999999994  0.3478112000000000
  0.0000000000000000  7.9529999999999994  5.6498112000000003
  0.0000000000000000  2.6509999999999998  4.9541887999999998
  5.3019999999999996  2.6509999999999998  0.3478112000000000
  5.3019999999999996  7.9529999999999994 10.2561887999999986
  5.3019999999999996  7.9529999999999994  4.9541887999999998
  5.3019999999999996  2.6509999999999998  5.6498112000000003
  2.6509999999999998 10.2561887999999986  0.0000000000000000
  2.6509999999999998  2.6509999999999998  2.6509999999999998
