opti conp c6

library lib2.lib
dump temp.res
time 15 minutes
maxcyc 1500
lbfgs_order 5000
time 5 minutes
library lib2.lib
# 
title
ASE calculation                                                                 
end
cell
  10.321704  10.322962  10.322962  90.016312  90.000000  90.000000
fractional  1   
O     core 0.1712000 0.8750000 0.3750000 -2.0000000 1.00000 0.00000             
O     core 0.3696954 0.8751202 0.5706661 -2.0000000 1.00000 0.00000             
O     core 0.6199435 0.1250375 0.4287476 -2.0000000 1.00000 0.00000             
O     core 0.3703720 0.3749835 0.6788818 -2.0000000 1.00000 0.00000             
O     core 0.6199435 0.6249624 0.3212523 -2.0000000 1.00000 0.00000             
O     core 0.8703226 0.3751366 0.1788810 -2.0000000 1.00000 0.00000             
O     core 0.1203354 0.6249088 0.8212533 -2.0000000 1.00000 0.00000             
O     core 0.8701148 0.8751115 0.0710773 -2.0000000 1.00000 0.00000             
O     core 0.1203354 0.1250911 0.9287466 -2.0000000 1.00000 0.00000             
O     core 0.8701148 0.1789226 0.3748884 -2.0000000 1.00000 0.00000             
O     core 0.8701148 0.5710773 0.3751115 -2.0000000 1.00000 0.00000             
O     core 0.3696954 0.6793338 0.3748797 -2.0000000 1.00000 0.00000             
O     core 0.6203335 0.3210518 0.6250005 -2.0000000 1.00000 0.00000             
O     core 0.3703720 0.1788818 0.8749835 -2.0000000 1.00000 0.00000             
O     core 0.6199435 0.8212523 0.1249624 -2.0000000 1.00000 0.00000             
O     core 0.8703226 0.0711189 0.8748633 -2.0000000 1.00000 0.00000             
O     core 0.1202683 0.9291789 0.1246725 -2.0000000 1.00000 0.00000             
O     core 0.5664534 0.3750000 0.8750000 -2.0000000 1.00000 0.00000             
O     core 0.4241816 0.6250359 0.1250359 -2.0000000 1.00000 0.00000             
O     core 0.1203354 0.4287466 0.6250911 -2.0000000 1.00000 0.00000             
O     core 0.6741108 0.3749999 0.3750000 -2.0000000 1.00000 0.00000             
O     core 0.1202683 0.8208210 0.6253274 -2.0000000 1.00000 0.00000             
O     core 0.6203335 0.4289481 0.1249994 -2.0000000 1.00000 0.00000             
O     core 0.1203354 0.3212533 0.1249088 -2.0000000 1.00000 0.00000             
O     core 0.8703226 0.6788810 0.8751366 -2.0000000 1.00000 0.00000             
O     core 0.3703720 0.3750164 0.0711181 -2.0000000 1.00000 0.00000             
O     core 0.6203335 0.6249994 0.9289481 -2.0000000 1.00000 0.00000             
O     core 0.8701148 0.8748884 0.6789226 -2.0000000 1.00000 0.00000             
O     core 0.1202683 0.1253274 0.3208210 -2.0000000 1.00000 0.00000             
O     core 0.6741108 0.8750000 0.8750000 -2.0000000 1.00000 0.00000             
O     core 0.3164731 0.1250077 0.1249922 -2.0000000 1.00000 0.00000             
O     core 0.3703720 0.5711181 0.8750164 -2.0000000 1.00000 0.00000             
O     core 0.0662711 0.3750000 0.3750000 -2.0000000 1.00000 0.00000             
O     core 0.6203335 0.1250005 0.8210518 -2.0000000 1.00000 0.00000             
O     core 0.3696954 0.8748797 0.1793338 -2.0000000 1.00000 0.00000             
O     core 0.1202683 0.6246725 0.4291789 -2.0000000 1.00000 0.00000             
O     core 0.8703226 0.3748633 0.5711189 -2.0000000 1.00000 0.00000             
O     core 0.8161877 0.6251786 0.1251786 -2.0000000 1.00000 0.00000             
O     core 0.1744061 0.3749999 0.8750000 -2.0000000 1.00000 0.00000             
O     core 0.4241816 0.1249640 0.6249640 -2.0000000 1.00000 0.00000             
O     core 0.5662315 0.8750000 0.3749999 -2.0000000 1.00000 0.00000             
O     core 0.9241842 0.6248676 0.6251323 -2.0000000 1.00000 0.00000             
O     core 0.3164731 0.6249922 0.6250077 -2.0000000 1.00000 0.00000             
O     core 0.6199435 0.9287476 0.6250375 -2.0000000 1.00000 0.00000             
O     core 0.8161877 0.1248213 0.6248213 -2.0000000 1.00000 0.00000             
O     core 0.3696954 0.0706661 0.3751202 -2.0000000 1.00000 0.00000             
O     core 0.3701982 0.3749999 0.3749999 -2.0000000 1.00000 0.00000             
O     core 0.6202610 0.6249004 0.6250995 -2.0000000 1.00000 0.00000             
O     core 0.6202610 0.1250995 0.1249004 -2.0000000 1.00000 0.00000             
O     core 0.8696321 0.8750000 0.3749999 -2.0000000 1.00000 0.00000             
O     core 0.3701982 0.8750000 0.8749999 -2.0000000 1.00000 0.00000             
O     core 0.8703969 0.3750000 0.8749999 -2.0000000 1.00000 0.00000             
O     core 0.1201902 0.6251454 0.1251454 -2.0000000 1.00000 0.00000             
O     core 0.9241842 0.1251323 0.1248676 -2.0000000 1.00000 0.00000             
O     core 0.0662711 0.8750000 0.8750000 -2.0000000 1.00000 0.00000             
O     core 0.1201902 0.1248545 0.6248545 -2.0000000 1.00000 0.00000             
Ti    core 0.2453786 0.2500440 0.9999559 4.00000000 1.00000 0.00000             
Ti    core 0.9952455 0.7499366 0.7501294 4.00000000 1.00000 0.00000             
Ti    core 0.4950729 0.9999177 0.4999177 4.00000000 1.00000 0.00000             
Ti    core 0.7451774 0.9999466 0.7499872 4.00000000 1.00000 0.00000             
Ti    core 0.2446713 0.0000131 0.2499868 4.00000000 1.00000 0.00000             
Ti    core 0.7451774 0.7500533 0.0000127 4.00000000 1.00000 0.00000             
Ti    core 0.2453786 0.4999559 0.7500440 4.00000000 1.00000 0.00000             
Ti    core 0.4953334 0.2499775 0.7499775 4.00000000 1.00000 0.00000             
Ti    core 0.4950729 0.7500822 0.2500822 4.00000000 1.00000 0.00000             
Ti    core 0.7451774 0.5000127 0.2500533 4.00000000 1.00000 0.00000             
Ti    core 0.9952455 0.2501294 0.2499366 4.00000000 1.00000 0.00000             
Ti    core 0.2446713 0.7499868 0.5000131 4.00000000 1.00000 0.00000             
Ti    core 0.7451774 0.2499872 0.4999466 4.00000000 1.00000 0.00000             
Ti    core 0.9952455 0.4998705 0.5000633 4.00000000 1.00000 0.00000             
Ti    core 0.4953334 0.5000224 0.0000224 4.00000000 1.00000 0.00000             
Ti    core 0.9952455 0.0000633 0.9998705 4.00000000 1.00000 0.00000             
Y     core 0.2452114 0.7500014 0.0000485 3.00000000 1.00000 0.00000             
Y     core 0.7453280 0.2500429 0.9999570 3.00000000 1.00000 0.00000             
Y     core 0.7451686 0.0001209 0.2498790 3.00000000 1.00000 0.00000             
Y     core 0.2452114 0.9999985 0.7499514 3.00000000 1.00000 0.00000             
Y     core 0.9949165 0.7500734 0.2500734 3.00000000 1.00000 0.00000             
Y     core 0.4951514 0.0000491 0.0000443 3.00000000 1.00000 0.00000             
Y     core 0.2452114 0.2499514 0.4999985 3.00000000 1.00000 0.00000             
Y     core 0.7451686 0.7498790 0.5001209 3.00000000 1.00000 0.00000             
Y     core 0.7453280 0.4999570 0.7500429 3.00000000 1.00000 0.00000             
Y     core 0.2452114 0.5000485 0.2500014 3.00000000 1.00000 0.00000             
Y     core 0.9953272 0.5000554 0.0000554 3.00000000 1.00000 0.00000             
Y     core 0.4951514 0.2499556 0.2499508 3.00000000 1.00000 0.00000             
Y     core 0.4951514 0.7499508 0.7499556 3.00000000 1.00000 0.00000             
Y     core 0.9949165 0.9999265 0.4999265 3.00000000 1.00000 0.00000             
Y     core 0.4951514 0.5000443 0.5000491 3.00000000 1.00000 0.00000             
Y     core 0.9953272 0.2499445 0.7499445 3.00000000 1.00000 0.00000             
