 O Ti  Y 
 1.0000000000000000
    10.0896000000000008    0.0000000000000000    0.0000000000000000
     0.0000000000000000   10.0896000000000008    0.0000000000000000
     0.0000000000000000    0.0000000000000000   10.0896000000000008
  56  16  16
Cartesian
  1.7273395200000004  8.8284000000000002  3.7836000000000003
  3.7836000000000003  8.8284000000000002  5.8398604800000005
  6.3060000000000009  1.2612000000000001  4.2497395200000003
  3.7836000000000003  3.7836000000000003  6.7721395200000005
  6.3060000000000009  6.3060000000000009  3.3174604800000003
  8.8284000000000002  3.7836000000000003  1.7273395200000004
  1.2612000000000001  6.3060000000000009  8.3622604799999998
  8.8284000000000002  8.8284000000000002  0.7950604800000000
  1.2612000000000001  1.2612000000000001  9.2945395200000007
  8.8284000000000002  1.7273395200000004  3.7836000000000003
  8.8284000000000002  5.8398604800000005  3.7836000000000003
  3.7836000000000003  6.7721395200000005  3.7836000000000003
  6.3060000000000009  3.3174604800000003  6.3060000000000009
  3.7836000000000003  1.7273395200000004  8.8284000000000002
  6.3060000000000009  8.3622604799999998  1.2612000000000001
  8.8284000000000002  0.7950604800000000  8.8284000000000002
  1.2612000000000001  9.2945395200000007  1.2612000000000001
  5.8398604800000005  3.7836000000000003  8.8284000000000002
  4.2497395200000003  6.3060000000000009  1.2612000000000001
  1.2612000000000001  4.2497395200000003  6.3060000000000009
  6.7721395200000005  3.7836000000000003  3.7836000000000003
  1.2612000000000001  8.3622604799999998  6.3060000000000009
  6.3060000000000009  4.2497395200000003  1.2612000000000001
  1.2612000000000001  3.3174604800000003  1.2612000000000001
  8.8284000000000002  6.7721395200000005  8.8284000000000002
  3.7836000000000003  3.7836000000000003  0.7950604800000000
  6.3060000000000009  6.3060000000000009  9.2945395200000007
  8.8284000000000002  8.8284000000000002  6.7721395200000005
  1.2612000000000001  1.2612000000000001  3.3174604800000003
  6.7721395200000005  8.8284000000000002  8.8284000000000002
  3.3174604800000003  1.2612000000000001  1.2612000000000001
  3.7836000000000003  5.8398604800000005  8.8284000000000002
  0.7950604800000000  3.7836000000000003  3.7836000000000003
  6.3060000000000009  1.2612000000000001  8.3622604799999998
  3.7836000000000003  8.8284000000000002  1.7273395200000004
  1.2612000000000001  6.3060000000000009  4.2497395200000003
  8.8284000000000002  3.7836000000000003  5.8398604800000005
  8.3622604799999998  6.3060000000000009  1.2612000000000001
  1.7273395200000004  3.7836000000000003  8.8284000000000002
  4.2497395200000003  1.2612000000000001  6.3060000000000009
  5.8398604800000005  8.8284000000000002  3.7836000000000003
  9.2945395200000007  6.3060000000000009  6.3060000000000009
  3.3174604800000003  6.3060000000000009  6.3060000000000009
  6.3060000000000009  9.2945395200000007  6.3060000000000009
  8.3622604799999998  1.2612000000000001  6.3060000000000009
  3.7836000000000003  0.7950604800000000  3.7836000000000003
  3.7836000000000003  3.7836000000000003  3.7836000000000003
  6.3060000000000009  6.3060000000000009  6.3060000000000009
  6.3060000000000009  1.2612000000000001  1.2612000000000001
  8.8284000000000002  8.8284000000000002  3.7836000000000003
  3.7836000000000003  8.8284000000000002  8.8284000000000002
  8.8284000000000002  3.7836000000000003  8.8284000000000002
  1.2612000000000001  6.3060000000000009  1.2612000000000001
  9.2945395200000007  1.2612000000000001  1.2612000000000001
  0.7950604800000000  8.8284000000000002  8.8284000000000002
  1.2612000000000001  1.2612000000000001  6.3060000000000009
  2.5224000000000002  2.5224000000000002  0.0000000000000000
  0.0000000000000000  7.5672000000000006  7.5672000000000006
  5.0448000000000004  0.0000000000000000  5.0448000000000004
  7.5672000000000006  0.0000000000000000  7.5672000000000006
  2.5224000000000002  0.0000000000000000  2.5224000000000002
  7.5672000000000006  7.5672000000000006  0.0000000000000000
  2.5224000000000002  5.0448000000000004  7.5672000000000006
  5.0448000000000004  2.5224000000000002  7.5672000000000006
  5.0448000000000004  7.5672000000000006  2.5224000000000002
  7.5672000000000006  5.0448000000000004  2.5224000000000002
  0.0000000000000000  2.5224000000000002  2.5224000000000002
  2.5224000000000002  7.5672000000000006  5.0448000000000004
  7.5672000000000006  2.5224000000000002  5.0448000000000004
  0.0000000000000000  5.0448000000000004  5.0448000000000004
  5.0448000000000004  5.0448000000000004  0.0000000000000000
  0.0000000000000000  0.0000000000000000  0.0000000000000000
  2.5224000000000002  7.5672000000000006  0.0000000000000000
  7.5672000000000006  2.5224000000000002  0.0000000000000000
  7.5672000000000006  0.0000000000000000  2.5224000000000002
  2.5224000000000002  0.0000000000000000  7.5672000000000006
  0.0000000000000000  7.5672000000000006  2.5224000000000002
  5.0448000000000004  0.0000000000000000  0.0000000000000000
  2.5224000000000002  2.5224000000000002  5.0448000000000004
  7.5672000000000006  7.5672000000000006  5.0448000000000004
  7.5672000000000006  5.0448000000000004  7.5672000000000006
  2.5224000000000002  5.0448000000000004  2.5224000000000002
  0.0000000000000000  5.0448000000000004  0.0000000000000000
  5.0448000000000004  2.5224000000000002  2.5224000000000002
  5.0448000000000004  7.5672000000000006  7.5672000000000006
  0.0000000000000000  0.0000000000000000  5.0448000000000004
  5.0448000000000004  5.0448000000000004  5.0448000000000004
  0.0000000000000000  2.5224000000000002  7.5672000000000006
