 O Sr Ti 
 1.0000000000000000
     3.8865599999999998    0.0000000000000000    0.0000000000000000
     0.0000000000000000    3.8865599999999998    0.0000000000000000
     0.0000000000000000    0.0000000000000000   12.5975000000000001
   8   4   2
Cartesian
  1.9432799999999999  0.0000000000000000  6.2987500000000001
  0.0000000000000000  1.9432799999999999  6.2987500000000001
  0.0000000000000000  1.9432799999999999  0.0000000000000000
  1.9432799999999999  0.0000000000000000  0.0000000000000000
  0.0000000000000000  0.0000000000000000  1.9803270000000002
  0.0000000000000000  0.0000000000000000 10.6171729999999993
  1.9432799999999999  1.9432799999999999  8.2790770000000009
  1.9432799999999999  1.9432799999999999  4.3184230000000001
  0.0000000000000000  0.0000000000000000  4.4566175750000001
  0.0000000000000000  0.0000000000000000  8.1408824250000009
  1.9432799999999999  1.9432799999999999 10.7553675749999993
  1.9432799999999999  1.9432799999999999  1.8421324250000004
  1.9432799999999999  1.9432799999999999  6.2987500000000001
  0.0000000000000000  0.0000000000000000  0.0000000000000000
