 O Ti 
 1.0000000000000000
     3.7841999999999998    0.0000000000000000    0.0000000000000000
     0.0000000000000000    3.7841999999999998    0.0000000000000000
     0.0000000000000000    0.0000000000000000    9.5145999999999997
   8   4
Cartesian
  0.0000000000000000  0.0000000000000000  1.9799882600000001
  1.8920999999999999  1.8920999999999999  6.7372882599999997
  0.0000000000000000  1.8920999999999999  4.3586382600000002
  1.8920999999999999  0.0000000000000000  9.1159382600000001
  1.8920999999999999  0.0000000000000000  5.1559617400000004
  0.0000000000000000  1.8920999999999999  0.3986617399999999
  1.8920999999999999  1.8920999999999999  2.7773117400000000
  0.0000000000000000  0.0000000000000000  7.5346117399999999
  0.0000000000000000  0.0000000000000000  0.0000000000000000
  1.8920999999999999  1.8920999999999999  4.7572999999999999
  0.0000000000000000  1.8920999999999999  2.3786499999999999
  1.8920999999999999  0.0000000000000000  7.1359499999999993
